[ti. 04. april 15:01:28 +0200 2023]  ./input/alternate_g_np/50-1-1.gcc
Set parameter Username
Academic license - for non-commercial use only - expires 2024-03-28
Set parameter TimeLimit to value 1800
Set parameter PreCrush to value 1
Set parameter LazyConstraints to value 1
Gurobi Optimizer version 10.0.1 build v10.0.1rc0 (linux64)

CPU model: AMD Ryzen 9 5950X 16-Core Processor, instruction set [SSE2|AVX|AVX2]
Thread count: 16 physical cores, 32 logical processors, using up to 32 threads

Optimize a model with 52 rows, 150 columns and 350 nonzeros
Model fingerprint: 0x761b903c
Variable types: 0 continuous, 150 integer (150 binary)
Coefficient statistics:
  Matrix range     [1e+00, 1e+00]
  Objective range  [2e+00, 1e+02]
  Bounds range     [1e+00, 1e+00]
  RHS range        [1e+00, 1e+00]
Presolve time: 0.00s
Presolved: 52 rows, 150 columns, 350 nonzeros
Variable types: 0 continuous, 150 integer (150 binary)

Root relaxation: objective 2.499000e+03, 2 iterations, 0.00 seconds (0.00 work units)

    Nodes    |    Current Node    |     Objective Bounds      |     Work
 Expl Unexpl |  Obj  Depth IntInf | Incumbent    BestBd   Gap | It/Node Time

     0     0 2499.00000    0    2          - 2499.00000      -     -    0s
     0     0 2499.00000    0    8          - 2499.00000      -     -    0s
     0     0 2499.00000    0    -          - 2499.00000      -     -    0s
     0     0 2499.00000    0    -          - 2499.00000      -     -    0s
     0     0 2499.00000    0    -          - 2499.00000      -     -    0s
     0     0 2499.00000    0   12          - 2499.00000      -     -    0s
     0     0 2499.00000    0    -          - 2499.00000      -     -    0s
     0     0 2499.00000    0   12          - 2499.00000      -     -    0s
     0     0 2499.00000    0    8          - 2499.00000      -     -    0s
     0     2 2499.00000    0    8          - 2499.00000      -     -    0s
*32600 10902              34     183.0000000 1720.00000   840%   9.4    2s
*32602 10902              25     236.0000000 1720.00000   629%   9.4    2s
*33955 11204              24     266.0000000 1711.50000   543%   9.4    2s
*37663 12050              25     276.0000000 1681.00000   509%   9.8    2s
*39726 12689              28     281.0000000 1665.00000   493%  10.0    2s
*43988 13761              53     285.0000000 1634.00000   473%  10.5    3s
*51167 15400              36     383.0000000 1086.60000   184%  10.7    4s
H53444 15379                     436.0000000 1050.00000   141%  10.6    4s
 62581 15213  439.00000   50    -  436.00000  882.00000   102%  10.7    5s
*64740 12903              62     483.0000000  836.00000  73.1%  10.7    5s
*65589 11515              47     493.0000000  802.00000  62.7%  10.7    5s
*67850  9106              69     509.0000000  755.00000  48.3%  10.7    5s
*68222  8312              40     513.0000000  755.00000  47.2%  10.7    5s
H68598  4783                     591.0000000  732.00000  23.9%  10.7    5s
*69409  2507              49     605.0000000  716.00000  18.3%  10.7    5s

Cutting planes:
  User: 46
  Lazy constraints: 1254

Explored 71745 nodes (757420 simplex iterations) in 5.50 seconds (2.20 work units)
Thread count was 32 (of 32 available processors)

Solution count 10: 605 591 513 ... 281

Optimal solution found (tolerance 1.00e-04)
Best objective 6.050000000000e+02, best bound 6.050000000000e+02, gap 0.0000%

User-callback calls 147352, time in user-callback 1.18 sec
Minimal separator inequalities added: 59970
Indegree inequalities added: 0
Passed solution check
[ti. 04. april 15:01:34 +0200 2023]  done

